CAPACITY = 3;
N_TASKS = 20;
d = [ 1, 5, 2, 2, 4, 1, 2, 5, 2, 2, 5, 2, 3, 2, 1, 2, 3, 5, 2, 1 ];
rr = [ 2, 2, 1, 2, 1, 2, 1, 1, 2, 1, 2, 1, 1, 1, 1, 1, 2, 2, 2, 1 ];
suc = [ {  },
       { 3, 4 },
       { 4, 6, 15 },
       {  },
       { 6 },
       {  },
       { 8 },
       {  },
       { 13, 18 },
       { 11 },
       { 12 },
       {  },
       { 15 },
       { 20 },
       {  },
       {  },
       {  },
       {  },
       {  },
       {  } ];
